
Gurobi 9.5.2 (win64) logging started Thu May 18 14:29:10 2023

Set parameter LogFile to value "./ccga_results/2023-05-18 14-29-08-585/MSP_TimeStampConvert_gurobi_log.txt"
Set parameter TimeLimit to value 1799

Gurobi 9.5.2 (win64) logging started Thu May 18 14:29:10 2023

Set parameter LogFile to value "./ccga_results/2023-05-18 14-29-08-585/MSP_TimeStampConvert_gurobi_log.txt"
Set parameter TimeLimit to value 1799
Gurobi Optimizer version 9.5.2 build v9.5.2rc0 (win64)
Thread count: 10 physical cores, 20 logical processors, using up to 20 threads
Optimize a model with 500 rows, 381 columns and 1234 nonzeros
Model fingerprint: 0x6e33b3fd
Variable types: 21 continuous, 360 integer (360 binary)
Coefficient statistics:
  Matrix range     [1e+00, 1e+00]
  Objective range  [1e+00, 1e+00]
  Bounds range     [1e+03, 1e+03]
  RHS range        [1e+00, 1e+00]
Found heuristic solution: objective 20000.000000

Explored 0 nodes (0 simplex iterations) in 0.00 seconds (0.00 work units)
Thread count was 1 (of 20 available processors)

Solution count 1: 20000 

Optimal solution found (tolerance 5.00e-02)
Best objective 2.000000000000e+04, best bound 2.000000000000e+04, gap 0.0000%

User-callback calls 21, time in user-callback 0.00 sec
